nNurses = 117;
nHours = 29;
minHours = 6;
maxHours = 19;
maxConsec = 18;
maxPresence = 11;
demand = [36, 34, 29, 24, 26, 26, 28, 26, 21, 22, 25, 28, 32, 30, 32, 31, 29, 29, 26, 24, 29, 26, 22, 17, 14, 14, 14, 9, 5];
